% Data file generated from RandomInstances/18_0.70_2.col DIMACS file
size = 18;

chi = 9;

adjacency = [|0,0,1,0,1,1,1,1,1,1,1,1,1,1,1,1,1,0,
|0,0,1,0,1,0,1,1,1,0,0,0,1,1,0,0,0,1,
|1,1,0,1,1,1,1,1,1,1,1,1,1,1,1,1,1,1,
|0,0,1,0,1,0,1,1,0,0,0,0,1,0,0,1,1,1,
|1,1,1,1,0,1,1,1,1,1,1,1,1,1,1,1,0,1,
|1,0,1,0,1,0,1,1,1,1,1,0,1,1,1,0,1,0,
|1,1,1,1,1,1,0,1,1,0,0,0,0,0,1,1,1,0,
|1,1,1,1,1,1,1,0,1,1,1,1,0,0,1,1,1,1,
|1,1,1,0,1,1,1,1,0,1,1,1,0,1,1,1,1,1,
|1,0,1,0,1,1,0,1,1,0,1,1,1,0,1,1,1,1,
|1,0,1,0,1,1,0,1,1,1,0,1,0,0,1,1,1,1,
|1,0,1,0,1,0,0,1,1,1,1,0,1,1,0,1,1,1,
|1,1,1,1,1,1,0,0,0,1,0,1,0,0,1,1,1,0,
|1,1,1,0,1,1,0,0,1,0,0,1,0,0,1,1,0,1,
|1,0,1,0,1,1,1,1,1,1,1,0,1,1,0,1,0,1,
|1,0,1,1,1,0,1,1,1,1,1,1,1,1,1,0,1,1,
|1,0,1,1,0,1,1,1,1,1,1,1,1,0,0,1,0,0,
|0,1,1,1,1,0,0,1,1,1,1,1,0,1,1,1,0,0,
|];